
  23    0


   0  14 2 3 4 5 6 7 9 10 11 12 19 20 21 22 
   8   4 18 15 14 13 
   1   3 17 15 8 
   1   2 16 13 
   1   2 16 13 
   7   2 15 14 
  10   2 15 13 
  10   1 13 
   8   1 14 
   2   1 14 
   2   1 13 
   2   1 13 
   9   1 23
   4   1 23
   7   1 23
   8   1 23
   6   1 23
   3   1 23
   5   1 23
   7   1 23
  10   1 23
   3   1 23
   0   0 
